letting n_nurses=25
letting n_days=7
letting n_shift_types=4
letting max_covers=11
letting t_covers=87
letting covers=[8,3,8,0,9,9,4,0,11,5,5,0,1,1,0,0,1,2,0,0,6,7,3,0,2,1,1,0]
letting prefes=[1,1,1,1,3,3,3,3,3,1,1,3,2,1,1,1,3,3,1,3,1,1,1,1,3,1,1,3,1,2,1,1,3,3,3,3,1,4,4,1,1,1,1,1,3,3,1,3,3,1,3,1,3,1,1,3,3,2,3,3,3,3,3,3,1,1,1,1,2,1,1,1,3,3,3,3,3,1,3,1,3,3,3,3,3,2,3,3,1,1,3,1,1,1,1,1,1,1,1,4,1,3,1,1,3,1,3,1,3,1,1,3,1,2,1,1,3,1,3,3,3,1,1,3,1,1,1,1,3,3,1,3,3,1,3,1,3,1,1,3,1,1,1,1,3,1,3,3,3,4,4,3,1,2,1,1,3,3,3,3,3,4,3,4,3,3,3,3,1,1,1,1,3,1,3,3,3,1,1,3,1,4,1,1,3,3,1,3,3,1,3,1,3,1,1,3,1,2,1,1,3,1,1,3,3,4,4,3,1,1,1,4,3,1,1,3,1,1,1,1,1,1,1,1,1,2,1,1,3,3,3,3,3,1,1,3,1,1,1,4,3,1,1,3,3,1,3,1,3,1,1,3,1,2,1,1,1,1,3,1,1,1,1,1,2,1,2,1,1,3,1,1,3,4,3,4,3,3,1,3,1,2,1,1,3,1,3,3,3,1,1,3,1,3,1,1,3,3,1,3,3,1,3,1,3,1,1,3,3,2,3,3,3,1,3,3,3,1,1,3,1,1,1,4,3,1,1,3,3,1,3,1,3,1,1,3,1,2,1,1,3,1,1,3,3,1,1,3,1,1,2,1,3,3,1,3,3,1,3,1,3,1,1,3,1,2,1,1,3,1,1,3,3,1,1,3,1,3,1,1,3,3,1,3,3,1,3,1,3,1,1,3,3,2,3,3,1,1,3,1,3,1,1,3,2,1,1,1,1,3,1,1,3,1,3,1,1,1,1,1,1,1,1,1,1,1,1,1,3,4,4,3,1,1,1,4,1,3,1,1,3,1,3,1,3,1,1,3,1,2,1,1,3,1,1,3,3,1,1,3,1,1,2,1,3,3,1,3,3,1,3,1,1,3,1,1,3,2,3,3,3,1,3,3,3,1,1,3,1,1,1,1,3,3,1,3,1,4,1,4,1,1,1,1,1,2,1,1,3,1,3,3,1,1,1,1,1,1,1,1,3,3,3,3,3,1,3,1,1,1,3,1,1,2,1,1,3,1,3,3,3,1,1,3,1,1,4,1,3,3,1,3,3,1,3,1,3,1,1,3,1,2,1,1,3,3,3,3,3,1,1,3,1,2,1,1,3,3,1,3,1,1,1,1,3,1,1,3,1,2,1,1,3,1,3,3,3,1,1,3,1,1,2,1,3,3,3,3,3,4,3,4,3,3,3,3,1,2,1,1,3,1,3,3,3,4,4,3,2,1,1,1,3,3,3,3,3,4,3,4,3,1,3,3,1,2,1,1,1,1,3,1,3,1,1,3,1,1,1,1,1,1,1,1,1,1,1,1,3,1,1,3,1,1,1,1,3,1,3,3,3,1,1,3,1,1,1,1,3,1,1,3,3,1,3,1,3,1,1,3]
letting ub =  237
